p cnf 15 31
-2 9 4 0
-2 12 3 4 0
2 -4 0
2 -9 -3 0
2 -9 -12 0
3 8 -13 0
-3 -8 0
-3 13 0
4 9 10 -11 0
4 -8 -10 -11 0
-4 11 0
-4 -9 10 0
-4 8 -10 0
5 -8 -7 0
5 -14 6 -7 0
-5 7 0
-5 8 14 0
-5 8 -6 0
6 -9 -12 0
-6 9 0
-6 12 0
7 8 -12 0
7 -9 -12 0
7 8 -9 0
7 -11 -12 0
-7 9 12 0
-7 -8 12 0
-7 -8 9 11 0
-15 0
2 0
-5 0

